batchdes.py
Ipopt 3.12.8: 
==> Warning: Treating 9 binary and 0 integer variables as continous.


******************************************************************************
This program contains Ipopt, a library for large-scale nonlinear optimization.
 Ipopt is released as open source code under the Eclipse Public License (EPL).
         For more information visit http://projects.coin-or.org/Ipopt
******************************************************************************

This is Ipopt version 3.12.8, running with linear solver ma27.

Number of nonzeros in equality constraint Jacobian...:       18
Number of nonzeros in inequality constraint Jacobian.:       28
Number of nonzeros in Lagrangian Hessian.............:       15

Total number of variables............................:       19
                     variables with only lower bounds:        0
                variables with lower and upper bounds:       19
                     variables with only upper bounds:        0
Total number of equality constraints.................:        6
Total number of inequality constraints...............:       13
        inequality constraints with only lower bounds:       12
   inequality constraints with lower and upper bounds:        0
        inequality constraints with only upper bounds:        1

iter    objective    inf_pr   inf_du lg(mu)  ||d||  lg(rg) alpha_du alpha_pr  ls
   0  7.7627528e+04 5.89e+02 2.20e+01  -1.0 0.00e+00    -  0.00e+00 0.00e+00   0
   1  7.7539952e+04 5.73e+02 2.18e+01  -1.0 1.10e+00    -  1.46e-02 2.70e-02h  1
   2  7.7900675e+04 5.64e+02 2.10e+01  -1.0 1.54e+00    -  4.01e-02 1.58e-02h  1
   3  7.9796591e+04 5.41e+02 2.01e+01  -1.0 1.89e+00    -  4.77e-02 4.27e-02h  1
   4  8.6607982e+04 4.72e+02 1.79e+01  -1.0 1.88e+00    -  1.46e-01 1.32e-01h  1
   5  1.0852539e+05 2.88e+02 1.47e+01  -1.0 1.60e+00    -  4.14e-01 4.05e-01h  1
   6  1.1079228e+05 2.72e+02 1.40e+01  -1.0 1.01e+00    -  9.82e-02 5.74e-02h  1
   7  1.4567090e+05 7.81e+01 3.46e+01  -1.0 7.86e-01    -  3.52e-01 7.44e-01h  1
   8  1.5427419e+05 3.23e+01 1.58e+01  -1.0 1.67e-01    -  1.00e+00 5.72e-01h  1
   9  1.5987957e+05 5.19e+00 3.76e+01  -1.0 6.72e-02    -  4.57e-01 7.98e-01h  1
iter    objective    inf_pr   inf_du lg(mu)  ||d||  lg(rg) alpha_du alpha_pr  ls
  10  1.6137185e+05 4.34e-19 2.01e-02  -1.0 1.66e-02    -  1.00e+00 1.00e+00h  1
  11  1.6087849e+05 2.22e-16 1.37e-03  -2.5 4.64e-02    -  1.00e+00 1.00e+00f  1
  12  1.6086155e+05 1.11e-16 1.61e-06  -3.8 1.56e-03    -  1.00e+00 1.00e+00f  1
  13  1.6086075e+05 1.11e-16 3.12e-09  -5.7 7.20e-05    -  1.00e+00 1.00e+00f  1
In iteration 13, 1 Slack too small, adjusting variable bound
  14  1.6086075e+05 3.43e-23 2.33e+00  -8.6 1.11e-06    -  1.00e+00 7.77e-01h  1
In iteration 14, 1 Slack too small, adjusting variable bound
  15  1.6086074e+05 1.11e-16 3.80e+00  -8.6 8.17e-04    -  8.62e-01 7.67e-01h  1
In iteration 15, 1 Slack too small, adjusting variable bound
  16  1.6086074e+05 1.11e-16 4.41e-01  -8.6 1.91e-04    -  8.77e-01 8.84e-01h  1
  17  1.6086074e+05 1.11e-16 1.83e-13  -8.6 2.21e-05    -  1.00e+00 1.00e+00h  1

Number of Iterations....: 17

                                   (scaled)                 (unscaled)
Objective...............:   4.5149473555595148e+02    1.6086074392912997e+05
Dual infeasibility......:   1.8314656574427316e-13    6.5252350677825625e-11
Constraint violation....:   1.1102230246251565e-16    1.1102230246251565e-16
Complementarity.........:   4.2589986706672067e-09    1.5174167949335940e-06
Overall NLP error.......:   4.2589986706672067e-09    1.5174167949335940e-06


Number of objective function evaluations             = 18
Number of objective gradient evaluations             = 18
Number of equality constraint evaluations            = 18
Number of inequality constraint evaluations          = 18
Number of equality constraint Jacobian evaluations   = 18
Number of inequality constraint Jacobian evaluations = 18
Number of Lagrangian Hessian evaluations             = 17
Total CPU secs in IPOPT (w/o function evaluations)   =      0.004
Total CPU secs in NLP function evaluations           =      0.000

EXIT: Optimal Solution Found.

Time elapsed: 0.114243984222